71 161 116 131 85 124 13 118 102 112 67 195 44 18 108 9 170 72 31 132 11 117 139 140 6 94 153 14 127 134 113 19 58 115 78 81 125 49 105 183 60 88 83 154 20 98 171 106 34 7 45 136 188 159 157 22 107 66 36 41 197 173 178 156 40 59 119 76 138 120 185 21 55 182 75 165 199 190 177 186 96 121 167 187 84 184 168 191 52 30 37 4 151 147 74 144 12 148 47 80 43 109 196 48 126 39 100 97 99 2 162 53 33 1 61 23 86 135 69 79 68 42 145 46 63 87 16 28 54 92 143 149 50 123 141 142 24 70 93 91 26 3 62 104 8 160 122 95 179 29 152 15 166 77 65 194 155 176 110 82 150 38 101 172 90 128 158 32 163 189 89 137 25 56 174 193 64 0 17 129 10 130 73 57 114 198 181 169 164 175 111 35 192 133 5 180 51 27 103 146  
71 161 173 131 85 124 13 118 102 112 67 195 44 18 108 79 170 72 31 132 11 117 139 140 6 94 153 14 127 134 113 19 58 115 78 81 125 49 75 60 88 83 109 20 98 171 106 69 159 178 119 185 34 7 45 136 188 22 107 66 36 41 197 116 54 156 40 138 120 59 21 199 55 190 177 186 80 157 76 135 96 121 167 187 84 184 168 179 52 30 37 4 151 147 74 144 12 148 47 43 25 196 48 126 39 158 97 99 2 162 53 33 1 61 23 86 42 145 46 63 87 16 28 172 92 143 149 183 50 123 141 142 24 70 93 91 26 3 174 104 8 160 122 165 191 29 152 15 166 77 155 90 65 176 110 82 100 32 163 189 150 89 137 105 95 194 154 56 62 193 64 0 17 129 128 10 130 38 73 101 57 114 198 181 169 164 103 35 192 146 9 51 133 175 5 68 180 182 27 111  
71 161 173 131 85 124 13 118 102 112 67 195 44 18 108 9 170 72 31 132 11 117 139 140 6 94 153 14 58 134 113 19 127 115 78 81 125 51 49 75 60 88 83 109 20 98 171 106 69 159 178 119 76 185 34 7 45 136 188 22 107 66 36 41 197 116 54 156 40 135 138 120 59 21 199 55 190 177 191 186 70 121 52 30 4 151 182 187 167 147 74 168 12 148 79 47 43 154 196 48 126 39 183 100 84 162 99 2 97 53 33 1 61 23 101 42 145 46 63 87 16 28 92 89 137 96 144 29 26 143 149 50 123 141 142 24 93 91 3 174 104 8 160 152 15 37 77 184 65 194 155 157 176 129 82 150 38 86 172 90 128 158 122 179 166 165 110 32 163 189 105 95 25 56 62 193 64 0 17 10 130 73 57 114 198 181 169 164 103 35 192 146 133 175 5 80 68 180 27 111  
71 161 173 131 85 124 13 118 102 112 67 195 44 18 108 9 170 72 31 132 11 117 139 140 6 94 153 14 127 134 113 19 58 115 78 81 125 49 75 60 88 119 83 109 20 98 171 106 69 159 178 130 76 185 34 7 45 136 188 157 22 107 66 36 41 197 116 54 156 40 135 138 120 59 21 199 55 190 177 191 186 96 121 52 30 37 4 151 147 74 103 12 148 167 168 47 43 80 187 84 184 144 25 196 48 126 39 158 97 99 2 162 53 33 1 61 23 86 42 145 46 63 87 16 28 172 92 143 149 183 50 123 141 142 24 70 93 91 26 3 174 104 8 160 122 165 179 29 152 15 166 77 155 90 65 176 110 82 100 169 163 189 150 89 137 105 95 194 154 56 62 193 64 0 17 129 128 10 38 73 101 57 114 198 181 32 164 35 192 146 79 51 133 175 5 68 180 182 27 111  
71 161 173 131 85 124 13 118 102 112 67 195 44 18 108 9 170 72 31 132 11 117 139 140 6 94 115 14 127 134 113 19 58 153 78 81 125 49 75 60 88 119 83 109 20 98 171 106 69 159 178 130 76 185 34 7 45 136 188 157 22 107 66 36 41 197 116 54 156 40 135 138 120 59 21 199 55 190 177 191 186 96 121 52 30 37 4 151 147 74 103 12 148 167 168 47 43 80 187 84 184 144 25 196 48 126 39 158 97 99 2 162 53 33 1 61 23 86 42 145 46 63 87 16 28 172 92 143 149 183 50 123 141 142 24 70 93 91 26 3 174 104 8 160 122 165 179 29 152 15 166 77 155 176 110 90 65 82 100 169 163 189 150 89 137 105 95 194 154 56 62 193 64 0 17 129 128 10 38 73 101 57 114 198 181 32 164 35 192 146 79 51 133 175 5 68 180 182 27 111  
71 161 173 131 85 124 13 47 102 112 67 195 44 18 108 79 170 72 31 132 11 117 139 140 6 94 153 14 127 134 113 19 58 115 78 81 125 49 75 60 88 119 83 109 20 98 171 106 69 159 178 130 76 185 34 7 45 136 188 157 22 107 66 36 41 197 116 54 156 40 135 138 120 59 21 199 55 190 177 186 80 96 121 167 187 84 184 168 179 52 30 37 4 151 147 74 144 12 148 118 43 25 196 48 126 39 158 97 99 2 162 53 33 1 61 23 86 42 145 46 63 87 16 28 172 92 143 149 183 50 123 141 142 24 70 93 91 26 3 174 104 8 160 122 165 191 29 152 15 166 77 155 90 65 176 110 82 100 32 163 189 150 89 137 105 95 194 154 56 62 193 64 0 17 129 128 10 38 73 101 57 114 198 181 169 164 103 35 192 146 9 51 133 175 5 68 180 182 27 111  
71 161 173 131 85 124 13 118 102 112 67 195 44 18 108 9 170 72 31 132 11 117 139 140 6 94 153 14 127 134 113 19 58 115 78 81 125 49 75 60 88 83 27 20 98 171 106 159 178 130 69 185 34 7 136 111 188 157 76 152 22 107 66 36 41 197 116 54 156 40 135 138 120 59 21 199 55 190 177 186 96 121 167 187 84 184 168 191 52 30 37 4 151 147 74 144 12 148 47 43 154 196 48 126 73 180 97 99 2 162 53 33 1 80 23 86 42 145 46 63 87 16 28 172 92 143 149 183 50 123 141 142 24 70 93 91 26 3 174 104 8 160 122 65 179 29 45 15 100 77 155 90 165 176 110 82 166 32 163 189 150 89 137 105 95 194 25 56 62 193 64 0 17 129 128 10 119 38 39 101 57 114 198 181 169 164 103 35 192 146 51 79 133 175 5 61 68 158 182 109  
71 161 173 131 85 124 13 118 102 112 67 195 44 18 108 9 170 72 31 132 11 117 139 140 6 94 115 14 127 134 113 19 58 153 78 81 125 49 75 60 88 119 83 109 20 98 171 106 69 159 178 130 76 185 34 7 45 136 188 157 22 107 66 36 41 197 116 54 156 40 135 138 120 59 21 199 55 190 177 191 186 96 121 52 30 37 4 151 147 74 103 12 148 167 168 47 43 80 187 84 184 144 25 196 48 126 39 158 97 99 2 162 53 33 1 61 23 86 42 145 46 63 87 16 28 172 92 143 149 183 50 123 141 142 24 70 93 91 26 3 174 104 8 160 122 165 179 29 152 15 166 155 77 176 110 90 65 82 100 169 163 189 150 89 137 105 95 194 154 56 62 193 64 0 17 32 192 129 128 10 38 73 101 57 114 198 181 164 35 27 111 180 146 51 79 133 175 5 68 182  
